language ESSENCE' 1.0

letting jobs = 102
letting horizon = 812
letting resourcesRenew = 2
letting resourcesNonrenew = 2
letting resourceLimits = [29, 26, 159, 155]
letting successors = [[2, 3, 4, 5, 6, 7, 8, 9, 10, 12, 13, 14, 15, 18, 20, 25, 26, 34], [44, 33, 29, 19, 17, 16, 11], [46, 41, 33, 31, 29, 28, 27, 24, 23], [53, 50, 48, 47, 46, 45, 43, 42, 41, 40, 39, 37, 36, 35, 32, 29], [56, 46, 41, 40, 39, 37, 35, 30, 23, 21], [56, 52, 48, 41, 40, 35, 31, 28, 23, 22], [50, 46, 42, 41, 39, 38, 35, 33, 30, 29, 27], [64, 48, 45, 43, 41, 37, 35, 31, 29, 27], [58, 55, 52, 50, 48, 42, 40, 37, 32, 28], [53, 50, 49, 47, 45, 29, 19], [66, 64, 60, 56, 48, 43, 41, 38, 35, 32, 31], [73, 66, 64, 60, 59, 56, 55, 54, 51, 50, 49, 42, 41, 36, 35], [66, 64, 61, 59, 57, 56, 53, 52, 51, 46, 43, 42, 38, 35], [71, 64, 61, 60, 57, 56, 52, 47, 43, 38, 32], [71, 61, 60, 57, 54, 45, 43, 42, 39, 32], [73, 69, 67, 61, 58, 57, 56, 54, 51, 50, 49, 48, 47, 42, 39, 38], [67, 62, 56, 51, 50, 48, 47, 40, 39, 37, 35], [69, 64, 48, 44, 33, 31], [73, 67, 66, 64, 60, 59, 58, 57, 55, 51, 46, 42, 36], [71, 64, 58, 57, 55, 53, 48, 42, 32], [73, 70, 69, 67, 66, 64, 63, 61, 58, 55, 54, 53, 51, 49, 48, 42], [73, 71, 69, 67, 66, 61, 60, 57, 55, 54, 53, 51, 47, 42], [73, 69, 67, 64, 61, 60, 53, 50, 47, 43, 38], [67, 64, 61, 60, 59, 57, 52, 51, 49, 48, 35], [73, 71, 67, 66, 63, 61, 59, 57, 53, 49, 42, 39], [71, 70, 69, 67, 63, 52, 51, 49, 48, 45, 42], [82, 73, 71, 69, 68, 63, 61, 60, 58, 57, 54, 49, 47], [73, 68, 67, 66, 61, 57, 54, 53, 49, 45, 39], [71, 70, 66, 65, 63, 62, 60, 59, 58, 56, 55, 54, 52], [83, 79, 70, 69, 67, 65, 62, 54, 53, 52, 51, 47], [75, 73, 67, 63, 61, 53, 50, 49, 42], [86, 79, 78, 74, 73, 70, 69, 67, 65, 63, 59, 51, 49], [79, 78, 74, 63, 57, 51, 49], [93, 83, 82, 79, 77, 75, 73, 71, 60, 57, 49], [85, 84, 82, 81, 80, 79, 76, 75, 74, 71, 70, 69, 68, 65, 63], [85, 82, 78, 77, 76, 75, 74, 65, 63, 62, 61], [84, 82, 81, 80, 79, 75, 73, 72, 71, 63, 54], [93, 90, 86, 85, 84, 82, 80, 79, 77, 76, 75, 74, 68, 65], [93, 87, 86, 85, 84, 83, 82, 79, 76, 75, 74, 72, 64], [86, 85, 81, 80, 79, 75, 74, 68, 66, 63, 60], [92, 84, 83, 82, 79, 78, 74, 72, 67, 57], [93, 90, 86, 83, 82, 79, 76, 74, 68, 65, 62], [87, 86, 82, 80, 74, 63, 58, 55], [85, 81, 80, 78, 74, 68, 60, 55], [90, 85, 79, 78, 74, 72, 62, 59], [100, 90, 87, 84, 83, 82, 80, 78, 77, 75, 71, 69], [90, 85, 80, 78, 76, 74, 59], [90, 87, 84, 78, 77, 76, 74, 65], [92, 90, 85, 81, 76, 72, 62], [101, 91, 87, 81, 80, 77, 76, 71, 70], [93, 92, 91, 90, 84, 82, 75, 68], [87, 86, 84, 78, 73, 72], [92, 90, 87, 86, 78, 72], [101, 99, 97, 93, 92, 91, 87, 85, 74], [97, 93, 92, 90, 89, 84, 76, 75], [97, 93, 90, 82, 80, 79, 78], [96, 87, 86, 81, 80, 70], [99, 92, 89, 84, 83, 77, 75], [92, 89, 84, 81, 77, 75], [99, 98, 92, 90, 87, 72], [101, 100, 97, 94, 90, 81, 79], [100, 97, 91, 87, 84, 80], [101, 100, 99, 98, 96, 92, 90, 89, 83], [97, 92, 91, 90, 88, 81, 80], [98, 92, 89, 72], [99, 98, 97, 90, 89, 84], [100, 98, 94, 90, 77], [98, 97, 94, 88, 87], [99, 97, 92, 91, 88], [100, 99, 98, 97, 94, 90], [99, 97, 96, 94, 89], [101, 100, 97, 88], [99, 97, 94, 90], [94, 89, 88], [101, 98, 96, 94], [100, 99, 95, 94], [97, 95, 88], [99, 94, 91], [89, 88], [99, 95, 94], [99, 98, 95], [99, 95, 94], [97, 95, 94], [94, 88], [94, 88], [94, 91], [89], [96], [95], [95], [98], [94], [100], [102], [102], [102], [102], [102], [102], [102], [102], []]
letting durations = [[0], [3, 3, 9], [2, 5, 9], [2, 6, 7], [2, 3, 6], [2, 6, 9], [3, 3, 4], [1, 5, 9], [7, 9, 9], [4, 8, 9], [1, 7, 8], [6, 6, 10], [1, 1, 9], [3, 9, 10], [1, 2, 8], [4, 7, 7], [3, 4, 10], [2, 5, 8], [3, 7, 7], [1, 1, 4], [1, 5, 7], [1, 8, 10], [4, 4, 8], [1, 2, 8], [2, 3, 4], [1, 5, 10], [1, 5, 8], [4, 8, 10], [5, 5, 6], [3, 6, 10], [3, 5, 7], [6, 7, 10], [2, 3, 10], [8, 8, 9], [1, 2, 3], [2, 6, 6], [2, 9, 9], [3, 4, 10], [3, 5, 8], [1, 2, 7], [3, 4, 7], [7, 8, 9], [1, 9, 10], [2, 5, 10], [1, 8, 10], [1, 3, 10], [3, 6, 7], [2, 7, 9], [2, 4, 9], [2, 4, 7], [3, 4, 5], [2, 3, 5], [1, 5, 6], [3, 5, 9], [5, 8, 10], [4, 5, 8], [1, 7, 7], [5, 6, 9], [3, 4, 8], [3, 6, 7], [4, 7, 10], [1, 2, 6], [3, 6, 8], [3, 7, 9], [1, 2, 3], [1, 2, 4], [3, 5, 10], [1, 4, 10], [4, 8, 10], [2, 3, 9], [3, 8, 10], [2, 8, 8], [3, 6, 10], [4, 4, 9], [3, 5, 7], [1, 8, 9], [1, 4, 9], [1, 7, 8], [1, 7, 7], [1, 2, 5], [4, 9, 9], [1, 2, 8], [1, 5, 9], [1, 10, 10], [5, 7, 8], [9, 10, 10], [1, 6, 10], [4, 4, 6], [2, 3, 7], [1, 3, 8], [3, 5, 10], [1, 6, 7], [5, 6, 10], [3, 4, 8], [2, 3, 9], [1, 5, 9], [6, 9, 10], [2, 5, 10], [2, 3, 5], [2, 9, 9], [2, 3, 5], [0]]
letting resourceUsage = [[[0, 0, 0, 0]], [[0, 3, 4, 0], [0, 3, 0, 5], [2, 0, 0, 2]], [[3, 0, 2, 0], [0, 1, 2, 0], [1, 0, 2, 0]], [[0, 4, 0, 4], [0, 3, 3, 0], [0, 3, 2, 0]], [[3, 0, 0, 5], [3, 0, 0, 2], [3, 0, 0, 1]], [[5, 0, 0, 6], [0, 3, 0, 3], [5, 0, 0, 1]], [[5, 0, 6, 0], [0, 4, 0, 5], [0, 2, 0, 1]], [[2, 0, 0, 5], [1, 0, 0, 2], [1, 0, 6, 0]], [[4, 0, 0, 8], [0, 4, 0, 8], [3, 0, 6, 0]], [[4, 0, 6, 0], [0, 3, 6, 0], [3, 0, 5, 0]], [[0, 3, 0, 4], [3, 0, 0, 3], [0, 1, 0, 3]], [[3, 0, 6, 0], [0, 3, 0, 3], [1, 0, 5, 0]], [[4, 0, 0, 9], [4, 0, 2, 0], [0, 1, 2, 0]], [[0, 4, 0, 2], [3, 0, 0, 1], [0, 4, 0, 1]], [[0, 2, 0, 4], [3, 0, 8, 0], [1, 0, 0, 4]], [[0, 3, 5, 0], [0, 2, 0, 7], [2, 0, 4, 0]], [[5, 0, 0, 3], [4, 0, 0, 2], [3, 0, 7, 0]], [[4, 0, 9, 0], [3, 0, 4, 0], [0, 2, 2, 0]], [[4, 0, 0, 6], [3, 0, 4, 0], [0, 5, 4, 0]], [[2, 0, 0, 3], [0, 4, 4, 0], [1, 0, 0, 1]], [[0, 4, 7, 0], [0, 2, 0, 4], [0, 2, 1, 0]], [[4, 0, 0, 6], [3, 0, 3, 0], [0, 1, 1, 0]], [[0, 2, 0, 10], [2, 0, 0, 7], [0, 1, 6, 0]], [[0, 3, 0, 8], [3, 0, 0, 6], [3, 0, 0, 5]], [[3, 0, 0, 5], [0, 2, 0, 4], [0, 2, 0, 3]], [[3, 0, 10, 0], [3, 0, 0, 1], [0, 1, 0, 1]], [[0, 3, 0, 7], [3, 0, 0, 3], [3, 0, 4, 0]], [[0, 2, 5, 0], [0, 2, 3, 0], [0, 2, 2, 0]], [[5, 0, 0, 9], [0, 3, 0, 7], [1, 0, 0, 6]], [[3, 0, 10, 0], [2, 0, 0, 1], [1, 0, 0, 1]], [[0, 4, 3, 0], [4, 0, 0, 6], [4, 0, 0, 5]], [[0, 1, 7, 0], [4, 0, 7, 0], [4, 0, 3, 0]], [[0, 5, 0, 2], [3, 0, 3, 0], [0, 2, 0, 2]], [[0, 4, 0, 3], [1, 0, 0, 4], [1, 0, 0, 3]], [[5, 0, 0, 9], [0, 2, 9, 0], [0, 1, 0, 4]], [[2, 0, 7, 0], [0, 2, 6, 0], [0, 1, 0, 1]], [[0, 3, 4, 0], [0, 3, 0, 5], [1, 0, 2, 0]], [[0, 4, 5, 0], [0, 4, 3, 0], [1, 0, 0, 2]], [[4, 0, 5, 0], [4, 0, 0, 3], [0, 1, 1, 0]], [[2, 0, 3, 0], [1, 0, 0, 3], [1, 0, 2, 0]], [[2, 0, 7, 0], [1, 0, 5, 0], [0, 3, 2, 0]], [[5, 0, 8, 0], [3, 0, 8, 0], [3, 0, 7, 0]], [[3, 0, 0, 8], [0, 2, 0, 6], [0, 1, 0, 6]], [[0, 4, 7, 0], [3, 0, 7, 0], [3, 0, 0, 2]], [[3, 0, 0, 8], [2, 0, 4, 0], [0, 3, 3, 0]], [[4, 0, 0, 8], [2, 0, 0, 6], [2, 0, 0, 5]], [[3, 0, 4, 0], [0, 3, 4, 0], [3, 0, 3, 0]], [[5, 0, 5, 0], [4, 0, 0, 4], [0, 1, 0, 2]], [[0, 5, 0, 1], [1, 0, 7, 0], [0, 2, 6, 0]], [[4, 0, 4, 0], [0, 4, 4, 0], [0, 4, 3, 0]], [[0, 4, 0, 8], [4, 0, 0, 8], [0, 3, 3, 0]], [[0, 3, 0, 3], [0, 3, 0, 2], [0, 1, 0, 2]], [[0, 3, 2, 0], [0, 3, 0, 8], [2, 0, 2, 0]], [[0, 4, 0, 5], [4, 0, 0, 4], [0, 2, 0, 4]], [[5, 0, 8, 0], [0, 5, 7, 0], [2, 0, 7, 0]], [[5, 0, 2, 0], [0, 3, 2, 0], [0, 2, 1, 0]], [[0, 2, 8, 0], [0, 2, 0, 3], [3, 0, 0, 3]], [[0, 4, 8, 0], [4, 0, 0, 3], [0, 3, 0, 3]], [[2, 0, 3, 0], [0, 3, 0, 3], [0, 3, 2, 0]], [[1, 0, 8, 0], [1, 0, 4, 0], [1, 0, 2, 0]], [[5, 0, 0, 10], [0, 2, 5, 0], [3, 0, 3, 0]], [[4, 0, 3, 0], [0, 3, 2, 0], [2, 0, 2, 0]], [[0, 3, 9, 0], [3, 0, 0, 4], [0, 1, 0, 4]], [[3, 0, 3, 0], [1, 0, 3, 0], [0, 3, 3, 0]], [[0, 2, 6, 0], [0, 2, 5, 0], [3, 0, 5, 0]], [[0, 1, 0, 4], [0, 1, 0, 3], [0, 1, 0, 2]], [[0, 2, 0, 10], [1, 0, 0, 10], [0, 1, 0, 10]], [[0, 5, 9, 0], [2, 0, 0, 5], [0, 4, 0, 1]], [[2, 0, 6, 0], [0, 4, 5, 0], [2, 0, 0, 4]], [[0, 5, 0, 7], [0, 3, 8, 0], [0, 2, 0, 1]], [[5, 0, 0, 8], [3, 0, 2, 0], [2, 0, 0, 6]], [[0, 2, 10, 0], [0, 2, 0, 7], [4, 0, 0, 4]], [[0, 5, 3, 0], [0, 4, 0, 7], [2, 0, 1, 0]], [[0, 4, 7, 0], [2, 0, 0, 5], [0, 3, 5, 0]], [[3, 0, 2, 0], [0, 3, 0, 6], [1, 0, 0, 5]], [[3, 0, 8, 0], [3, 0, 0, 2], [3, 0, 0, 1]], [[0, 4, 3, 0], [0, 3, 2, 0], [0, 2, 0, 9]], [[3, 0, 2, 0], [2, 0, 2, 0], [2, 0, 0, 2]], [[3, 0, 8, 0], [2, 0, 0, 3], [1, 0, 8, 0]], [[4, 0, 0, 4], [4, 0, 2, 0], [0, 3, 2, 0]], [[0, 2, 0, 8], [5, 0, 7, 0], [0, 2, 4, 0]], [[0, 3, 0, 5], [0, 2, 7, 0], [4, 0, 6, 0]], [[4, 0, 8, 0], [4, 0, 6, 0], [3, 0, 5, 0]], [[0, 4, 5, 0], [3, 0, 0, 3], [0, 3, 2, 0]], [[0, 4, 0, 5], [0, 2, 7, 0], [1, 0, 0, 1]], [[0, 3, 5, 0], [3, 0, 3, 0], [0, 3, 0, 2]], [[4, 0, 2, 0], [0, 2, 0, 6], [2, 0, 0, 3]], [[0, 3, 0, 7], [0, 3, 9, 0], [0, 2, 0, 2]], [[0, 5, 0, 10], [0, 3, 0, 4], [3, 0, 3, 0]], [[0, 4, 0, 9], [3, 0, 0, 9], [0, 4, 0, 8]], [[0, 1, 5, 0], [0, 1, 4, 0], [0, 1, 0, 3]], [[0, 3, 0, 3], [4, 0, 0, 3], [0, 1, 0, 2]], [[3, 0, 2, 0], [2, 0, 0, 8], [0, 3, 2, 0]], [[4, 0, 0, 5], [0, 4, 0, 4], [0, 3, 0, 4]], [[1, 0, 8, 0], [1, 0, 7, 0], [0, 3, 7, 0]], [[0, 4, 2, 0], [0, 4, 1, 0], [0, 3, 1, 0]], [[2, 0, 8, 0], [0, 3, 0, 3], [0, 3, 0, 2]], [[3, 0, 8, 0], [2, 0, 0, 3], [2, 0, 0, 2]], [[0, 5, 3, 0], [2, 0, 0, 3], [0, 3, 2, 0]], [[0, 3, 8, 0], [0, 3, 4, 0], [2, 0, 2, 0]], [[0, 5, 0, 10], [3, 0, 5, 0], [1, 0, 3, 0]], [[0, 0, 0, 0]]]
